problems/csplib-prob049/set_partition_full-models/noch/O0/minion/model_2_1-16-3-solution000001.solution
language Essence 1.3

letting setA be {1, 4, 6, 7, 10, 11, 13, 16}
letting setB be {2, 3, 5, 8, 9, 12, 14, 15}
