problems/csplib-prob049/set_partition_full-models/noch/O2/minion/model_2_1-16-3-solution000001.eprime-solution
language ESSENCE' 1.0

letting setA_Explicit be [1, 4, 6, 7, 10, 11, 13, 16; int(1..8)]
letting setB_Occurrence be
        [false, true, true, false, true, false, false, true, true, false, false, true, false, true, true, false;
             int(1..16)]
